Gurobi Optimizer version 9.1.2 build v9.1.2rc0 (linux64)
Thread count: 36 physical cores, 72 logical processors, using up to 32 threads
Optimize a model with 12 rows, 57 columns and 590 nonzeros
Model fingerprint: 0xf32eec78
Model has 47 quadratic constraints
Coefficient statistics:
  Matrix range     [2e-05, 3e+00]
  QMatrix range    [1e+00, 1e+00]
  QLMatrix range   [1e+00, 1e+00]
  Objective range  [8e-03, 7e-01]
  Bounds range     [1e+00, 1e+00]
  RHS range        [1e+00, 1e+00]
Presolve removed 9 rows and 0 columns

Continuous model is non-convex -- solving as a MIP.

Presolve removed 9 rows and 0 columns
Presolve time: 0.00s
Presolved: 189 rows, 57 columns, 443 nonzeros
Presolved model has 47 bilinear constraint(s)
Variable types: 57 continuous, 0 integer (0 binary)

Root relaxation: objective -1.743721e+00, 44 iterations, 0.00 seconds

    Nodes    |    Current Node    |     Objective Bounds      |     Work
 Expl Unexpl |  Obj  Depth IntInf | Incumbent    BestBd   Gap | It/Node Time

     0     0   -1.74372    0   38          -   -1.74372      -     -    0s
H    0     0                       0.6147548   -1.74372   384%     -    0s
     0     0   -1.64739    0    1    0.61475   -1.64739   368%     -    0s
H    0     0                      -1.6450460   -1.64739  0.14%     -    0s
     0     0     cutoff    0        -1.64505   -1.64505  0.00%     -    0s

Cutting planes:
  RLT: 25
  BQP: 3

Explored 1 nodes (76 simplex iterations) in 0.01 seconds
Thread count was 32 (of 72 available processors)

Solution count 2: -1.64505 0.614755 
No other solutions better than -1.64505

Optimal solution found (tolerance 1.00e-04)
Best objective -1.645045978473e+00, best bound -1.645045978473e+00, gap 0.0000%

User-callback calls 78, time in user-callback 0.00 sec
Gurobi Optimizer version 9.1.2 build v9.1.2rc0 (linux64)
Thread count: 36 physical cores, 72 logical processors, using up to 32 threads
Optimize a model with 24 rows, 120 columns and 2480 nonzeros
Model fingerprint: 0xc6b2d4f6
Model has 100 quadratic constraints
Coefficient statistics:
  Matrix range     [8e-06, 4e+00]
  QMatrix range    [1e+00, 1e+00]
  QLMatrix range   [1e+00, 1e+00]
  Objective range  [6e-03, 1e+00]
  Bounds range     [1e+00, 1e+00]
  RHS range        [1e+00, 1e+00]
Presolve removed 16 rows and 0 columns

Continuous model is non-convex -- solving as a MIP.

Presolve removed 16 rows and 0 columns
Presolve time: 0.00s
Presolved: 408 rows, 120 columns, 1350 nonzeros
Presolved model has 100 bilinear constraint(s)
Variable types: 120 continuous, 0 integer (0 binary)

Root relaxation: objective -9.063630e+00, 116 iterations, 0.00 seconds

    Nodes    |    Current Node    |     Objective Bounds      |     Work
 Expl Unexpl |  Obj  Depth IntInf | Incumbent    BestBd   Gap | It/Node Time

     0     0   -9.06363    0  100          -   -9.06363      -     -    0s
H    0     0                       0.9693331   -9.06363  1035%     -    0s
     0     0   -6.26241    0  100    0.96933   -6.26241   746%     -    0s
H    0     0                       0.2806134   -6.26241  2332%     -    0s
     0     0   -5.66646    0   90    0.28061   -5.66646  2119%     -    0s
H    0     0                      -1.2288625   -5.66646   361%     -    0s
     0     0   -5.64805    0   90   -1.22886   -5.64805   360%     -    0s
     0     0   -5.48273    0  100   -1.22886   -5.48273   346%     -    0s
     0     0   -5.47217    0  100   -1.22886   -5.47217   345%     -    0s
     0     0   -5.42312    0   90   -1.22886   -5.42312   341%     -    0s
H    0     0                      -1.2992057   -5.42312   317%     -    0s
     0     0   -5.41308    0   90   -1.29921   -5.41308   317%     -    0s
     0     0   -5.39884    0   90   -1.29921   -5.39884   316%     -    0s
     0     0   -5.39551    0  100   -1.29921   -5.39551   315%     -    0s
     0     0   -5.38565    0   90   -1.29921   -5.38565   315%     -    0s
H    0     0                      -1.4966093   -5.38565   260%     -    0s
     0     0   -5.38407    0  100   -1.49661   -5.38407   260%     -    0s
     0     0   -5.38226    0  100   -1.49661   -5.38226   260%     -    0s
     0     0   -5.38212    0  100   -1.49661   -5.38212   260%     -    0s
     0     0   -5.38212    0  100   -1.49661   -5.38212   260%     -    0s
H    0     0                      -2.6858998   -5.38212   100%     -    0s
H    0     0                      -3.6187279   -5.38212  48.7%     -    0s
H    0     0                      -3.6230512   -5.38212  48.6%     -    0s
     0     2   -5.38212    0  100   -3.62305   -5.38212  48.6%     -    0s
*  839   706              27      -3.6485425   -4.81228  31.9%  27.1    0s
*  842   706              29      -3.6485722   -4.81228  31.9%  27.0    0s
*  852   706              30      -3.6709703   -4.81228  31.1%  26.9    0s
*  900   834              32      -3.6766577   -4.81228  30.9%  26.2    0s
*  902   834              33      -3.6769898   -4.81228  30.9%  26.2    0s
* 1143   994              28      -3.6904076   -4.81228  30.4%  23.4    0s
* 1185   994              23      -3.7370642   -4.81228  28.8%  23.0    0s
* 1187   994              24      -3.7371787   -4.81228  28.8%  22.9    0s
* 1317  1154              23      -4.5918002   -4.81228  4.80%  22.1    0s
* 1318  1154              23      -4.5918008   -4.81228  4.80%  22.0    0s
* 1602   958              20      -4.6104211   -4.69312  1.79%  20.1    0s
* 1918   640              18      -4.6104394   -4.66989  1.29%  17.5    0s
* 1922   640              20      -4.6105126   -4.66989  1.29%  17.4    0s
* 1955   640              19      -4.6105836   -4.66989  1.29%  17.2    0s
* 1959   640              20      -4.6106082   -4.66989  1.29%  17.1    0s
* 1960   640              20      -4.6106111   -4.66989  1.29%  17.1    0s
* 1995   640              17      -4.6106309   -4.66989  1.29%  16.9    0s
* 2012   640              17      -4.6106573   -4.66989  1.28%  16.8    0s
* 2034   640              21      -4.6110473   -4.66989  1.28%  16.6    0s
* 2243   331              25      -4.6147662   -4.66989  1.19%  15.1    0s
* 2244   331              25      -4.6147663   -4.66989  1.19%  15.1    0s
* 2290   331              26      -4.6148572   -4.66989  1.19%  14.8    0s
* 2293   331              26      -4.6148635   -4.66989  1.19%  14.8    0s
* 2699    58              21      -4.6160163   -4.65612  0.87%  12.7    0s
* 2700    58              21      -4.6160361   -4.65612  0.87%  12.7    0s
* 2709    58              18      -4.6186655   -4.65612  0.81%  12.7    0s
* 2711    58              19      -4.6187600   -4.65612  0.81%  12.7    0s
* 2731    58              26      -4.6191318   -4.65612  0.80%  12.6    0s
* 2735    58              25      -4.6192744   -4.65612  0.80%  12.6    0s

Cutting planes:
  RLT: 71
  BQP: 10
  PSD: 8

Explored 3128 nodes (35148 simplex iterations) in 0.73 seconds
Thread count was 32 (of 72 available processors)

Solution count 10: -4.61927 -4.61913 -4.61876 ... -4.61105

Optimal solution found (tolerance 1.00e-04)
Best objective -4.619274440339e+00, best bound -4.619303298971e+00, gap 0.0006%

User-callback calls 6601, time in user-callback 0.00 sec



objective value: -4.619274440339458
objective bound: -4.6193032989706975
x_opt: [0.0, 1.0, 1.0, 0.0, 1.0, 0.30499207217333885, 0.003461009119215087, 0.0, 1.0, 0.36910473245605246, 0.0, 0.0, 0.0, 1.0, 0.0, 0.8384058396589704, 1.0, 0.9589898891705503, 0.0, 1.0]
GUROBI solution time: 0.7286190986633301




